#Input file for uniaxial tensile loading of single crystal aluminum
# Mark Tschopp, November 2010

# ------------------------ INITIALIZATION ----------------------------
units 		metal
dimension	3
boundary	p	p	p
atom_style	atomic
variable latparam equal 4.05

# ----------------------- ATOM DEFINITION ----------------------------
lattice		fcc ${latparam}
region		whole block 0 12 0 12 0 12
create_box	1 whole
lattice 	fcc ${latparam} orient x 1 0 0 orient y 0 1 0 orient z 0 0 1
create_atoms	1 region whole

# ------------------------ FORCE FIELDS ------------------------------
pair_style	eam/alloy
pair_coeff	* * Al99.eam.alloy Al

# ------------------------- SETTINGS ---------------------------------
compute csym all centro/atom fcc
compute totcsym all reduce sum c_csym 
compute maxcsym all reduce max c_csym 
compute peratom all pe/atom 

######################################
# EQUILIBRATION
reset_timestep	0
timestep 0.001
velocity all create 300 12345 mom yes rot no
fix 1 all npt temp 300 300 1 iso 0 0 1 drag 1 

# Set thermo output
thermo 1000
thermo_style custom step lx ly lz press pxx pyy pzz pe temp

# Run for at least 10 picosecond (assuming 1 fs timestep)
run 20000
unfix 1

# Store final cell length for strain calculations
variable tmp1 equal "lx"
variable Lx0 equal ${tmp1}
variable tmp2 equal "ly"
variable Ly0 equal ${tmp2}

print "Initial Length in x, Lx0: ${Lx0}"
print "Initial Length in y, Ly0: ${Ly0}"

######################################
# DEFORMATION
change_box all triclinic
reset_timestep	0

fix		1 all nvt temp 300 300 1 
variable srate equal -5.0e8
variable srate1 equal "v_srate / 1.0e12"
# shear 
# y axis tension
# x axis tension
fix		2 all deform 1 y erate ${srate1} xy final 9.72 units box remap x

# Output strain and stress info to file
# for units metal, pressure is in [bars] = 100 [kPa] = 1/10000 [GPa]
# p2, p3, p4 are in GPa
variable strain1 equal "(lx - v_Lx0)/v_Lx0"
variable strain2 equal "(ly - v_Ly0)/v_Ly0"
variable eps1 equal "v_strain1"
variable eps2 equal "v_strain2"
variable eps3 equal "xy/v_Ly0"
variable p1 equal "-pxx/10000"
variable p2 equal "-pyy/10000"
variable p12 equal "-pxy/10000"
variable tcsym equal c_totcsym
variable mxcsym equal c_maxcsym
fix def1 all print 100 "${eps1} ${eps2} ${eps3} ${p1} ${p2} ${p12} ${tcsym} ${mxcsym}" file ./data/Al_unicompy_s20.def.txt screen no


# Use cfg for AtomEye
dump 		1 all custom 250 ./data/dump.unicompy_s20_def mass type xs ys zs c_csym c_peratom fx fy fz
dump_modify 1 element Al

#dump 1 all custom 1000 dump.def_{jobname} id mass type x y z fx fy fz c_pot_energy c_volume[1] c_stress[1] c_stress[2] c_stress[3] c_stress[4] c_stress[5] c_stress[6]

# Display thermo
thermo 	1000
thermo_style	custom step v_strain1 temp v_p1 v_p2 v_p12 ke pe press

run		400000

######################################
# SIMULATION DONE
print "All done"
